50
    57    96    53    31    12    91    91    64    78     7    21    93     9    18    95    51    76    38    25    58    63    22    93    28    72    65    45    64    18     3    92    60    35    13    13   100    69    13    50    59    85    59    12     3    60    51    73    89    91    28
     9     6     9     2     3     7     5     4    10     5     2     2     8    10     8     3     3     5    10     3     2     4     7     4    10     4     4     4     4     4    10     9     6     5     9     4     6    10     8     9     4     5     3     1     7     7    10     7     7     6
   483     0   252   259   735   978   394     0     0    82   250     0   451   415   941   476   616     0     0   267   839     0   368  1025   905     0     0   315  1010     0   784     0   266   290    57     0   399     0   992     0   109   253     0     0   839   639   637   101     0   298
